93
65
100
129
171
132
99
60
93
189
54
99
0
149
191
342
109
43
35
101
133
135
0
147
79
61
507
53
251
153
31
60
255
41
78
216
529
56
217
218
72
92
127
57
242
68
45
68
270
75
83
73
117
65
207
90
99
71
75
54
128
413
66
43
176
83
0
0
33
76
78
124
38
74
21
59
0
68
54
294
82
104
32
68
120
40
50
41
108
32
90
49
106
67
57
36
235
0
76
237
